NAME = SAfile180,
TOURSIZE = 180,
LENGTH = 1950,
94,48,81,112,65,100,143,146,127,126,178,7,120,115,165,160,92,95,109,30,51,47,163,74,78,159,153,123,124,55,169,177,104,145,140,5,9,148,59,161,151,117,49,99,119,71,113,57,142,98,91,1,11,63,38,50,4,32,42,21,8,93,79,162,61,15,147,40,46,138,132,6,22,175,173,174,130,84,35,107,149,150,102,88,25,133,144,108,157,56,86,87,154,129,141,27,114,111,110,105,69,67,131,76,53,31,18,2,156,97,10,34,3,39,75,167,90,136,121,80,13,134,122,20,68,17,19,106,166,179,62,137,24,44,118,89,168,14,60,85,82,72,66,36,37,23,70,77,128,155,41,83,171,64,158,135,52,43,139,152,29,16,12,45,172,116,180,176,103,96,170,164,54,28,73,33,125,58,101,26